30
2	4	6	8	10	11	14	17	18	19	20	23	24	26	29	30	0
1	3	4	5	8	9	15	17	21	23	25	26	28	29	0
2	6	9	10	11	12	14	16	17	21	22	23	24	25	26	27	30	0
1	2	6	8	10	11	16	17	19	20	22	23	24	26	27	28	30	0
2	7	9	10	11	14	16	17	18	20	21	22	23	26	27	28	29	0
1	3	4	7	8	10	11	12	13	18	19	25	26	27	28	29	30	0
5	6	9	11	12	13	14	15	16	19	20	21	26	28	29	0
1	2	4	6	9	10	12	14	15	16	17	19	24	26	27	28	0
2	3	5	7	8	10	12	13	14	15	17	18	21	22	23	25	26	27	28	29	0
1	3	4	5	6	8	9	11	12	13	15	16	17	18	21	22	26	27	29	0
1	3	4	5	6	7	10	12	13	15	19	20	21	24	26	28	29	30	0
3	6	7	8	9	10	11	13	14	15	16	17	18	19	21	24	25	27	29	30	0
6	7	9	10	11	12	14	15	20	22	24	27	29	30	0
1	3	5	7	8	9	12	13	15	16	17	20	21	22	25	27	29	0
2	7	8	9	10	11	12	13	14	17	18	20	21	22	23	24	26	27	29	0
3	4	5	7	8	10	12	14	19	20	22	23	25	27	28	29	30	0
1	2	3	4	5	8	9	10	12	14	15	18	21	23	24	25	26	27	28	29	0
1	5	6	9	10	12	15	17	20	23	24	25	26	27	28	30	0
1	4	6	7	8	11	12	16	20	21	22	25	27	28	30	0
1	4	5	7	11	13	14	15	16	18	19	21	24	26	29	30	0
2	3	5	7	9	10	11	12	14	15	17	19	20	24	25	26	28	0
3	4	5	9	10	13	14	15	16	19	23	24	25	26	28	0
1	2	3	4	5	9	15	16	17	18	22	24	27	28	30	0
1	3	4	8	11	12	13	15	17	18	20	21	22	23	25	26	27	28	29	30	0
2	3	6	9	12	14	16	17	18	19	21	22	24	26	29	30	0
1	2	3	4	5	6	7	8	9	10	11	15	17	18	20	21	22	24	25	29	30	0
3	4	5	6	8	9	10	12	13	14	15	16	17	18	19	23	24	29	0
2	4	5	6	7	8	9	11	16	17	18	19	21	22	23	24	30	0
1	2	5	6	7	9	10	11	12	13	14	15	16	17	20	24	25	26	27	30	0
1	3	4	6	11	12	13	16	18	19	20	23	24	25	26	28	29	0


comments:
random graph
nodes 30
edges 258
rng seed 626 
